(set-logic HORN)
(declare-fun assign_22_5_166_abs0 (Int Int Int Int) Bool)
(declare-fun assert_21_5_157_abs0 (Int Int Int Int) Bool)
(declare-fun assert_20_12_142_abs0 (Int Int Int Int) Bool)
(declare-fun while_19_1_169_abs0 (Int Int Int Int) Bool)
(declare-fun assign_18_1_107_abs0 (Int Int Int Int) Bool)
(declare-fun assign_17_1_101_abs0 (Int Int Int Int) Bool)
(declare-fun assign_15_5_92_abs0 (Int Int Int Int) Bool)
(declare-fun assert_14_12_83_abs0 (Int Int Int Int) Bool)
(declare-fun while_13_1_95_abs0 (Int Int Int Int) Bool)
(declare-fun assign_12_1_39_abs0 (Int Int Int Int) Bool)
(declare-fun end_abs0 (Int Int Int Int) Bool)
(declare-fun start_abs0 (Int Int Int Int) Bool)
(assert (forall ((source (Array Int Int)) (l Int) (i Int) (vabs_f_f Int)) (start_abs0 vabs_f_f (select source vabs_f_f) l i)))
(assert (forall ((i Int) (l Int) (source (Array Int Int)) (vabs_0_f_f Int)) (=> (start_abs0 vabs_0_f_f (select source vabs_0_f_f) l i) (assign_12_1_39_abs0 vabs_0_f_f (select source vabs_0_f_f) l i))))
(assert (forall ((i Int) (l Int) (source (Array Int Int)) (vabs_0_f_f Int)) (=> (assign_12_1_39_abs0 vabs_0_f_f (select source vabs_0_f_f) l i) (while_13_1_95_abs0 vabs_0_f_f (select source vabs_0_f_f) l 0))))
(assert (forall ((source (Array Int Int)) (l Int) (i Int) (vabs_0_f_f Int)) (=> (and (while_13_1_95_abs0 i (select source i) l i) (while_13_1_95_abs0 vabs_0_f_f (select source vabs_0_f_f) l i) (not (= (select source i) 0))) (assert_14_12_83_abs0 vabs_0_f_f (select source vabs_0_f_f) l i))))
(assert (forall ((source (Array Int Int)) (l Int) (i Int) (vabs_0_f_f Int)) (=> (and (while_13_1_95_abs0 i (select source i) l i) (while_13_1_95_abs0 vabs_0_f_f (select source vabs_0_f_f) l i) (not (not (= (select source i) 0)))) (assign_17_1_101_abs0 vabs_0_f_f (select source vabs_0_f_f) l i))))
(assert (forall ((k Int) (i Int) (l Int) (source (Array Int Int))) (=> (and (assert_14_12_83_abs0 k (select source k) l i) (<= 0 k) (< k i)) (not (= (select source k) 0)))))
(assert (forall ((i Int) (l Int) (source (Array Int Int)) (vabs_0_f_f Int)) (=> (assert_14_12_83_abs0 vabs_0_f_f (select source vabs_0_f_f) l i) (assign_15_5_92_abs0 vabs_0_f_f (select source vabs_0_f_f) l i))))
(assert (forall ((i Int) (l Int) (source (Array Int Int)) (vabs_0_f_f Int)) (=> (assign_15_5_92_abs0 vabs_0_f_f (select source vabs_0_f_f) l i) (while_13_1_95_abs0 vabs_0_f_f (select source vabs_0_f_f) l (+ i 1)))))
(assert (forall ((i Int) (l Int) (source (Array Int Int)) (vabs_0_f_f Int)) (=> (assign_17_1_101_abs0 vabs_0_f_f (select source vabs_0_f_f) l i) (assign_18_1_107_abs0 vabs_0_f_f (select source vabs_0_f_f) i i))))
(assert (forall ((i Int) (l Int) (source (Array Int Int)) (vabs_0_f_f Int)) (=> (assign_18_1_107_abs0 vabs_0_f_f (select source vabs_0_f_f) l i) (while_19_1_169_abs0 vabs_0_f_f (select source vabs_0_f_f) l 0))))
(assert (forall ((source (Array Int Int)) (l Int) (i Int) (vabs_0_f_f Int)) (=> (and (while_19_1_169_abs0 vabs_0_f_f (select source vabs_0_f_f) l i) (< i l)) (assert_20_12_142_abs0 vabs_0_f_f (select source vabs_0_f_f) l i))))
(assert (forall ((source (Array Int Int)) (l Int) (i Int) (vabs_0_f_f Int)) (=> (and (while_19_1_169_abs0 vabs_0_f_f (select source vabs_0_f_f) l i) (not (< i l))) (end_abs0 vabs_0_f_f (select source vabs_0_f_f) l i))))
(assert (forall ((k Int) (i Int) (l Int) (source (Array Int Int))) (=> (and (assert_20_12_142_abs0 k (select source k) l i) (<= 0 k) (< k l)) (not (= (select source k) 0)))))
(assert (forall ((i Int) (l Int) (source (Array Int Int)) (vabs_0_f_f Int)) (=> (assert_20_12_142_abs0 vabs_0_f_f (select source vabs_0_f_f) l i) (assert_21_5_157_abs0 vabs_0_f_f (select source vabs_0_f_f) l i))))
(assert (forall ((i Int) (l Int) (source (Array Int Int))) (=> (assert_21_5_157_abs0 i (select source i) l i) (not (= (select source i) 0)))))
(assert (forall ((i Int) (l Int) (source (Array Int Int)) (vabs_0_f_f Int)) (=> (assert_21_5_157_abs0 vabs_0_f_f (select source vabs_0_f_f) l i) (assign_22_5_166_abs0 vabs_0_f_f (select source vabs_0_f_f) l i))))
(assert (forall ((i Int) (l Int) (source (Array Int Int)) (vabs_0_f_f Int)) (=> (assign_22_5_166_abs0 vabs_0_f_f (select source vabs_0_f_f) l i) (while_19_1_169_abs0 vabs_0_f_f (select source vabs_0_f_f) l (+ i 1)))))
(check-sat)